# PBE1PBE/6-311g

Water

0 1
H
O   1   [{% print OH %}]
H   2   [{% print OH %}]    1   [{% print HOH %}]

